NAME          
ROWS
 N  OBJ
 L  c1
COLUMNS
    MARKER    'MARKER'                 'INTORG'
    x[1]      c1        626
    x[1]      OBJ       -524
    x[2]      c1        551
    x[2]      OBJ       -769
    x[3]      c1        706
    x[3]      OBJ       -843
    x[4]      c1        117
    x[4]      OBJ       -290
    x[5]      c1        414
    x[5]      OBJ       -516
    x[6]      c1        418
    x[6]      OBJ       -401
    x[7]      c1        942
    x[7]      OBJ       -84
    x[8]      c1        846
    x[8]      OBJ       -88
    x[9]      c1        195
    x[9]      OBJ       -474
    x[10]     c1        272
    x[10]     OBJ       -55
    x[11]     c1        264
    x[11]     OBJ       -335
    x[12]     c1        209
    x[12]     OBJ       -807
    x[13]     c1        591
    x[13]     OBJ       -840
    x[14]     c1        327
    x[14]     OBJ       -185
    x[15]     c1        383
    x[15]     OBJ       -628
    x[16]     c1        892
    x[16]     OBJ       -266
    x[17]     c1        912
    x[17]     OBJ       -274
    x[18]     c1        17
    x[18]     OBJ       -462
    x[19]     c1        920
    x[19]     OBJ       -877
    x[20]     c1        775
    x[20]     OBJ       -197
    x[21]     c1        143
    x[21]     OBJ       -604
    x[22]     c1        357
    x[22]     OBJ       -231
    x[23]     c1        706
    x[23]     OBJ       -568
    x[24]     c1        973
    x[24]     OBJ       -445
    x[25]     c1        253
    x[25]     OBJ       -516
    x[26]     c1        216
    x[26]     OBJ       -421
    x[27]     c1        135
    x[27]     OBJ       -205
    x[28]     c1        918
    x[28]     OBJ       -37
    x[29]     c1        527
    x[29]     OBJ       -824
    x[30]     c1        76
    x[30]     OBJ       -902
    x[31]     c1        956
    x[31]     OBJ       -171
    x[32]     c1        383
    x[32]     OBJ       -595
    x[33]     c1        253
    x[33]     OBJ       -647
    x[34]     c1        401
    x[34]     OBJ       -528
    x[35]     c1        25
    x[35]     OBJ       -817
    x[36]     c1        361
    x[36]     OBJ       -524
    x[37]     c1        919
    x[37]     OBJ       -961
    x[38]     c1        683
    x[38]     OBJ       -119
    x[39]     c1        718
    x[39]     OBJ       -724
    x[40]     c1        195
    x[40]     OBJ       -81
    x[41]     c1        359
    x[41]     OBJ       -204
    x[42]     c1        870
    x[42]     OBJ       -577
    x[43]     c1        431
    x[43]     OBJ       -167
    x[44]     c1        148
    x[44]     OBJ       -307
    x[45]     c1        987
    x[45]     OBJ       -177
    x[46]     c1        826
    x[46]     OBJ       -274
    x[47]     c1        750
    x[47]     OBJ       -517
    x[48]     c1        973
    x[48]     OBJ       -814
    x[49]     c1        341
    x[49]     OBJ       -341
    x[50]     c1        545
    x[50]     OBJ       -386
    x[51]     c1        265
    x[51]     OBJ       -597
    x[52]     c1        48
    x[52]     OBJ       -551
    x[53]     c1        867
    x[53]     OBJ       -772
    x[54]     c1        722
    x[54]     OBJ       -722
    x[55]     c1        504
    x[55]     OBJ       -636
    x[56]     c1        188
    x[56]     OBJ       -274
    x[57]     c1        271
    x[57]     OBJ       -477
    x[58]     c1        964
    x[58]     OBJ       -641
    x[59]     c1        561
    x[59]     OBJ       -941
    x[60]     c1        480
    x[60]     OBJ       -587
    x[61]     c1        427
    x[61]     OBJ       -701
    x[62]     c1        683
    x[62]     OBJ       -245
    x[63]     c1        861
    x[63]     OBJ       -944
    x[64]     c1        235
    x[64]     OBJ       -86
    x[65]     c1        560
    x[65]     OBJ       -931
    x[66]     c1        424
    x[66]     OBJ       -535
    x[67]     c1        879
    x[67]     OBJ       -593
    x[68]     c1        724
    x[68]     OBJ       -88
    x[69]     c1        803
    x[69]     OBJ       -429
    x[70]     c1        63
    x[70]     OBJ       -558
    x[71]     c1        564
    x[71]     OBJ       -469
    x[72]     c1        61
    x[72]     OBJ       -935
    x[73]     c1        362
    x[73]     OBJ       -831
    x[74]     c1        521
    x[74]     OBJ       -371
    x[75]     c1        545
    x[75]     OBJ       -458
RHS
    rhs       c1        19194
RANGES
BOUNDS
 LO bounds    x[1]      0
 PL bounds    x[1]
 LO bounds    x[2]      0
 PL bounds    x[2]
 LO bounds    x[3]      0
 PL bounds    x[3]
 LO bounds    x[4]      0
 PL bounds    x[4]
 LO bounds    x[5]      0
 PL bounds    x[5]
 LO bounds    x[6]      0
 PL bounds    x[6]
 LO bounds    x[7]      0
 PL bounds    x[7]
 LO bounds    x[8]      0
 PL bounds    x[8]
 LO bounds    x[9]      0
 PL bounds    x[9]
 LO bounds    x[10]     0
 PL bounds    x[10]
 LO bounds    x[11]     0
 PL bounds    x[11]
 LO bounds    x[12]     0
 PL bounds    x[12]
 LO bounds    x[13]     0
 PL bounds    x[13]
 LO bounds    x[14]     0
 PL bounds    x[14]
 LO bounds    x[15]     0
 PL bounds    x[15]
 LO bounds    x[16]     0
 PL bounds    x[16]
 LO bounds    x[17]     0
 PL bounds    x[17]
 LO bounds    x[18]     0
 PL bounds    x[18]
 LO bounds    x[19]     0
 PL bounds    x[19]
 LO bounds    x[20]     0
 PL bounds    x[20]
 LO bounds    x[21]     0
 PL bounds    x[21]
 LO bounds    x[22]     0
 PL bounds    x[22]
 LO bounds    x[23]     0
 PL bounds    x[23]
 LO bounds    x[24]     0
 PL bounds    x[24]
 LO bounds    x[25]     0
 PL bounds    x[25]
 LO bounds    x[26]     0
 PL bounds    x[26]
 LO bounds    x[27]     0
 PL bounds    x[27]
 LO bounds    x[28]     0
 PL bounds    x[28]
 LO bounds    x[29]     0
 PL bounds    x[29]
 LO bounds    x[30]     0
 PL bounds    x[30]
 LO bounds    x[31]     0
 PL bounds    x[31]
 LO bounds    x[32]     0
 PL bounds    x[32]
 LO bounds    x[33]     0
 PL bounds    x[33]
 LO bounds    x[34]     0
 PL bounds    x[34]
 LO bounds    x[35]     0
 PL bounds    x[35]
 LO bounds    x[36]     0
 PL bounds    x[36]
 LO bounds    x[37]     0
 PL bounds    x[37]
 LO bounds    x[38]     0
 PL bounds    x[38]
 LO bounds    x[39]     0
 PL bounds    x[39]
 LO bounds    x[40]     0
 PL bounds    x[40]
 LO bounds    x[41]     0
 PL bounds    x[41]
 LO bounds    x[42]     0
 PL bounds    x[42]
 LO bounds    x[43]     0
 PL bounds    x[43]
 LO bounds    x[44]     0
 PL bounds    x[44]
 LO bounds    x[45]     0
 PL bounds    x[45]
 LO bounds    x[46]     0
 PL bounds    x[46]
 LO bounds    x[47]     0
 PL bounds    x[47]
 LO bounds    x[48]     0
 PL bounds    x[48]
 LO bounds    x[49]     0
 PL bounds    x[49]
 LO bounds    x[50]     0
 PL bounds    x[50]
 LO bounds    x[51]     0
 PL bounds    x[51]
 LO bounds    x[52]     0
 PL bounds    x[52]
 LO bounds    x[53]     0
 PL bounds    x[53]
 LO bounds    x[54]     0
 PL bounds    x[54]
 LO bounds    x[55]     0
 PL bounds    x[55]
 LO bounds    x[56]     0
 PL bounds    x[56]
 LO bounds    x[57]     0
 PL bounds    x[57]
 LO bounds    x[58]     0
 PL bounds    x[58]
 LO bounds    x[59]     0
 PL bounds    x[59]
 LO bounds    x[60]     0
 PL bounds    x[60]
 LO bounds    x[61]     0
 PL bounds    x[61]
 LO bounds    x[62]     0
 PL bounds    x[62]
 LO bounds    x[63]     0
 PL bounds    x[63]
 LO bounds    x[64]     0
 PL bounds    x[64]
 LO bounds    x[65]     0
 PL bounds    x[65]
 LO bounds    x[66]     0
 PL bounds    x[66]
 LO bounds    x[67]     0
 PL bounds    x[67]
 LO bounds    x[68]     0
 PL bounds    x[68]
 LO bounds    x[69]     0
 PL bounds    x[69]
 LO bounds    x[70]     0
 PL bounds    x[70]
 LO bounds    x[71]     0
 PL bounds    x[71]
 LO bounds    x[72]     0
 PL bounds    x[72]
 LO bounds    x[73]     0
 PL bounds    x[73]
 LO bounds    x[74]     0
 PL bounds    x[74]
 LO bounds    x[75]     0
 PL bounds    x[75]
ENDATA
